NAME : rnd80_20.tsp
TYPE : TSP
DIMENSION : 20
EDGE_WEIGHT_TYPE : EUC_2D
NODE_COORD_SECTION
0 446 302
1 663 676
2 323 21
3 37 625
4 580 964
5 820 206
6 268 279
7 827 690
8 463 270
9 549 28
10 941 473
11 811 162
12 50 348
13 934 337
14 738 996
15 212 532
16 287 598
17 504 888
18 197 928
19 456 453
